10
1 0 27
2 0 33
2 1 15
3 0 14
3 1 53
3 2 16
4 0 36
4 1 33
4 2 9
4 3 58
5 0 2
5 1 55
5 2 13
5 3 59
5 4 7
6 0 49
6 1 58
6 2 28
6 3 9
6 4 36
6 5 26
7 0 28
7 1 21
7 2 24
7 3 10
7 4 37
7 5 54
7 6 6
8 0 51
8 1 19
8 2 5
8 3 40
8 4 54
8 5 60
8 6 27
8 7 21
9 0 38
9 1 56
9 2 38
9 3 37
9 4 17
9 5 23
9 6 18
9 7 23
9 8 1
